c --- [ banner ] -------------------------------------------------------------
c 
c CaDiCaL Radically Simplified CDCL SAT Solver
c Copyright (c) 2016-2021 A. Biere, M. Fleury, N. Froleyks
c 
c Version 1.5.2 9c38a080b32c28d805e8e6ca21849856b0cda605
c g++ (Ubuntu 7.5.0-3ubuntu1~18.04) 7.5.0 -Wall -Wextra -O3 -DNDEBUG
c Wed Feb 16 23:15:36 EST 2022 Linux fac-vanhoeve01 5.4.0-99-generic x86_64
c 
c --- [ limit ] --------------------------------------------------------------
c 
c setting time limit to 600 seconds real time (due to '-t 600')
c setting conflict limit to 1000000000 conflicts (due to '1000000000')
c 
c --- [ parsing input ] ------------------------------------------------------
c 
c reading DIMACS file from 'ddfwcnfs/le450_25d.col_25.cnf'
c opening file to read 'ddfwcnfs/le450_25d.col_25.cnf'
c found 'p cnf 11250 385900' header
c parsed 385900 clauses in 0.21 seconds process time
c closing file 'ddfwcnfs/le450_25d.col_25.cnf'
c after reading 5435487 bytes 5.2 MB
c 
c --- [ options ] ------------------------------------------------------------
c 
c all options are set to their default value
c 
c --- [ solving ] ------------------------------------------------------------
c 
c time measured in process time since initialization
c 
c  seconds  reductions  redundant  irredundant
c         MB    restarts       trail       variables
c          level   conflicts       glue         remaining
c 
c *  0.21 37  0 0   0    0    0  0% 0 385275 10625 94%
c {  0.22 37  0 0   0    0    0  0% 0 385275 10625 94%
c -  0.31 38 24 1   0  304  188 23% 20 385275 10625 94%
c }  0.35 38 23 1   0 1000  641 22% 20 385275 10625 94%
c [  0.35 38  0 1   0 1000  641  0% 0 385275 10625 94%
c O  0.35 38 33 1   0 1002  643 38% 27 385275 10625 94%
c -  0.57 50 25 2   0 1257  715 33% 22 385275 10625 94%
c -  0.77 50 27 3   1 2684 1321 32% 23 385275 10625 94%
c ]  0.79 50 27 3   1 3002 1539 32% 23 385275 10625 94%
c {  0.79 50 23 3   1 3002 1539 22% 20 385275 10625 94%
c F  0.79 50 23 3   1 3003 1540 22% 20 385275 10625 94%
c -  1.00 50 34 4  38 4586 1687 24% 20 385275 10625 94%
c #  1.41 49 30 4  52 6009 2467 24% 20 385275 10625 94%
c -  1.59 49 30 5  65 6965 2018 24% 20 385275 10625 94%
c }  1.59 49 29 5  65 7004 2031 24% 20 385275 10625 94%
c [  1.59 49 27 5  65 7004 2031 32% 23 385275 10625 94%
c -  1.86 49 27 6  67 9819 2374 26% 23 385275 10625 94%
c I  1.88 49 27 6  67 10011 2517 26% 23 385275 10625 94%
c s  2.04 58 87 6  68 10361 2636 29% 25 385275 10625 94%
c e  2.87 58 87 6  68 10361 1397 29% 25 265758 8477 75%
c 
c  seconds  reductions   redundant   irredundant
c         MB    restarts        trail       variables
c          level    conflicts       glue         remaining
c 
c s  3.08 60 87 6  68 10361 1396 29% 25 265758 8477 75%
c ^  3.13 60 87 6  68 10361 1396 29% 25 265758 8477 75%
c -  4.21 63 92 7  69 13149 3107 73% 41 265758 8477 75%
c ]  5.21 63 94 7  70 15009 4861 73% 47 265758 8477 75%
c {  5.21 63 29 7  70 15009 4861 32% 20 265758 8477 75%
c B  5.22 63 30 7  71 15015 4867 32% 20 265758 8477 75%
c -  5.63 63 34 8 297 16567 3627 32% 23 265758 8477 75%
c -  5.95 63 31 9 442 20413 2908 28% 24 265758 8477 75%
c W  6.16 63 31 9 471 21016 3186 28% 24 265758 8477 75%
c -  6.56 63 32 10 773 24686 3329 26% 25 265758 8477 75%
c F  6.77 63 31 10 908 28017 5179 25% 25 265758 8477 75%
c -  6.96 63 31 11 909 29388 3864 25% 25 265758 8477 75%
c s  7.53 63 31 11 909 30243 4374 25% 25 265758 8477 75%
c s  8.11 63 31 11 909 30243 4307 25% 25 265758 8477 75%
c ^  8.15 63 31 11 909 30243 4307 25% 25 265758 8477 75%
c }  8.21 63 31 11 909 31011 4859 25% 24 265758 8477 75%
c [  8.21 63 94 11 909 31011 4859 73% 47 265758 8477 75%
c -  8.56 63 77 12 911 34516 4728 51% 41 265758 8477 75%
c B  8.66 63 72 12 912 36021 5815 46% 40 265758 8477 75%
c -  9.59 64 125 13 915 40074 5951 54% 51 265758 8477 75%
c 
c  seconds   reductions     redundant   irredundant
c         MB      restarts         trail       variables
c           level     conflicts        glue         remaining
c 
c W 11.30 64 127 13 916 45022 10505 60% 61 265758 8477 75%
c - 11.77 74 127 14 917 46059 7309 61% 63 265758 8477 75%
c - 14.58 64 124 15 917 52469 8087 65% 69 265758 8477 75%
c O 15.44 64 122 15 918 55023 10459 67% 71 265758 8477 75%
c - 15.90 73 113 16 921 59309 8269 63% 67 265758 8477 75%
c s 16.03 73 111 16 922 60067 8800 62% 66 265758 8477 75%
c s 16.71 73 111 16 922 60067 8769 62% 66 265758 8477 75%
c ^ 16.75 73 111 16 922 60067 8769 62% 66 265758 8477 75%
c ] 16.92 73 104 16 924 63012 10662 59% 63 265758 8477 75%
c { 16.92 73 31 16 924 63012 10662 25% 24 265758 8477 75%
c B 17.12 73 31 16 937 66025 12545 25% 25 265758 8477 75%
c - 17.29 73 31 17 972 66575 8596 25% 25 265758 8477 75%
c - 17.90 73 32 18 976 74268 8283 24% 24 265758 8477 75%
c W 19.07 73 32 18 988 78026 11299 23% 24 265758 8477 75%
c - 19.87 73 34 19 1209 82389 8311 24% 25 265758 8477 75%
c - 20.53 73 33 20 1280 90939 8274 24% 24 265758 8477 75%
c # 20.54 73 33 20 1280 91027 8343 24% 24 265758 8477 75%
c s 21.19 73 31 20 1291 99831 13119 23% 24 265758 8477 75%
c s 21.84 73 31 20 1291 99831 12397 23% 24 265758 8477 75%
c ^ 21.88 73 31 20 1291 99831 12397 23% 24 265758 8477 75%
c 
c  seconds  reductions     redundant   irredundant
c         MB     restarts         trail       variables
c          level      conflicts       glue         remaining
c 
c - 22.00 73 31 21 1291 99915 7045 23% 24 265758 8477 75%
c B 22.87 73 31 21 1291 105028 10839 23% 23 265758 8477 75%
c - 23.46 73 31 22 1587 109316 8348 23% 24 265758 8477 75%
c - 24.14 73 31 23 2011 119145 7529 23% 24 265758 8477 75%
c W 24.80 73 31 23 2033 120030 8090 23% 24 265758 8477 75%
c } 25.22 73 30 23 2103 127012 12188 23% 24 265758 8477 75%
c [ 25.22 73 104 23 2103 127012 12188 59% 63 265758 8477 75%
c - 25.48 73 99 24 2103 129401 8367 56% 60 265758 8477 75%
c B 25.92 73 88 24 2108 136031 12833 50% 55 265758 8477 75%
c - 27.37 73 114 25 2110 140084 10925 52% 57 265758 8477 75%
c s 31.04 73 115 25 2111 149537 19175 57% 64 265758 8477 75%
c w 31.28 73 115 25 2111 149537 19174 57% 64 265758 8477 75%
c s 31.86 73 115 25 2111 149537 19133 57% 64 265758 8477 75%
c ^ 31.95 73 115 25 2111 149537 19133 57% 64 265758 8477 75%
c - 33.36 86 115 26 2111 151197 12978 57% 65 265758 8477 75%
c W 35.62 86 115 26 2112 153036 14570 58% 66 265758 8477 75%
c - 38.86 73 220 27 2112 162737 13528 58% 74 265758 8477 75%
c I 41.16 73 260 27 2115 171037 20270 58% 77 265758 8477 75%
c - 43.99 87 271 28 2118 174705 14818 59% 82 265758 8477 75%
c - 54.69 73 251 29 2125 187100 15561 63% 89 265758 8477 75%
c 
c  seconds   reductions       redundant   irredundant
c         MB      restarts           trail       variables
c           level      conflicts         glue         remaining
c 
c B 56.30 73 247 29 2126 190038 18371 63% 91 265758 8477 75%
c - 61.73 88 232 30 2127 199920 16726 66% 94 265758 8477 75%
c s 67.81 88 220 30 2133 209183 25038 67% 96 265758 8477 75%
c e 68.69 88 220 30 2133 209183 25038 67% 96 265773 8476 75%
c s 68.77 88 220 30 2133 209183 25024 67% 96 265773 8476 75%
c W 70.87 88 219 30 2134 210039 25776 67% 96 265773 8476 75%
c - 73.41 73 215 31 2134 213168 18240 68% 96 265773 8476 75%
c - 84.81 88 198 32 2142 226844 19702 69% 97 265773 8476 75%
c O 87.65 88 193 32 2142 231040 23481 70% 97 265773 8476 75%
c - 88.85 73 177 33 2143 240946 19289 67% 90 265773 8476 75%
c B 90.50 73 160 33 2144 253041 29598 62% 83 265773 8476 75%
c ] 91.33 73 166 33 2144 255012 31455 63% 84 265773 8476 75%
c { 91.33 73 30 33 2144 255012 31455 23% 24 265773 8476 75%
c - 91.55 77 30 34 2177 255476 18418 23% 24 265773 8476 75%
c - 92.91 77 32 35 2340 270433 16285 23% 24 265773 8476 75%
c F 94.29 77 33 35 2389 276043 20780 22% 24 265773 8476 75%
c s 95.25 77 32 35 2395 278774 22260 22% 23 265773 8476 75%
c s 96.70 77 32 35 2395 278774 21955 22% 23 265773 8476 75%
c - 97.65 77 32 36 2413 285817 21311 22% 23 265773 8476 75%
c B 99.30 77 31 36 2537 300044 30984 21% 23 265773 8476 75%
c 
c  seconds  reductions       redundant   irredundant
c         MB     restarts           trail       variables
c          level      conflicts         glue         remaining
c 
c - 99.63 77 31 37 2570 301629 16639 22% 23 265773 8476 75%
c - 100.96 77 31 38 2615 317874 16704 22% 23 265773 8476 75%
c W 103.56 77 31 38 2621 325045 22319 22% 23 265773 8476 75%
c - 105.93 77 30 39 2752 334542 16075 22% 23 265773 8476 75%
c # 107.36 77 29 39 2834 351046 25580 21% 23 265773 8476 75%
c - 107.56 77 29 40 2847 351636 14251 21% 23 265773 8476 75%
c - 109.41 77 28 41 2895 369157 15301 21% 22 265773 8476 75%
c B 110.36 77 28 41 2957 378049 21456 21% 22 265773 8476 75%
c - 112.11 77 29 42 3668 387106 15912 22% 23 265773 8476 75%
c - 114.73 77 29 43 4001 405484 14197 22% 23 265773 8476 75%
c W 116.98 77 29 43 4012 406051 14405 22% 23 265773 8476 75%
c - 118.80 77 28 44 4239 424288 13345 22% 23 265773 8476 75%
c F 119.59 77 28 44 4326 435054 19066 22% 23 265773 8476 75%
c - 120.50 77 27 45 4367 443518 15572 22% 23 265773 8476 75%
c - 123.38 77 27 46 4518 463176 16113 22% 23 265773 8476 75%
c B 123.54 77 27 46 4519 465058 17244 22% 23 265773 8476 75%
c - 125.51 77 27 47 4641 483261 16886 22% 23 265773 8476 75%
c W 128.95 77 26 47 4644 496061 25658 21% 22 265773 8476 75%
c - 129.99 77 26 48 4654 503773 18405 21% 22 265773 8476 75%
c } 130.55 77 26 48 4656 511013 22910 21% 22 265773 8476 75%
c 
c  seconds    reductions       redundant   irredundant
c          MB      restarts           trail       variables
c            level      conflicts         glue         remaining
c 
c [ 130.55 77 166 48 4656 511013 22910 63% 84 265773 8476 75%
c - 131.85 77 145 49 4656 524714 19307 56% 75 265773 8476 75%
c W 135.72 77 141 49 4656 528065 21821 54% 73 265773 8476 75%
c - 137.74 82 120 50 4661 546081 21599 47% 64 265773 8476 75%
c I 139.35 82 106 50 4670 561068 32512 43% 58 265773 8476 75%
c - 143.39 82 266 51 4671 567876 23830 45% 79 265773 8476 75%
c - 155.43 112 285 52 4682 590098 27494 51% 103 265773 8476 75%
c B 158.44 112 279 52 4685 595069 32056 52% 104 265773 8476 75%
c - 169.74 83 252 53 4687 612750 27980 57% 103 265773 8476 75%
c W 181.64 83 229 53 4693 630071 42670 60% 102 265773 8476 75%
c - 185.55 92 223 54 4695 635828 28879 61% 102 265773 8476 75%
c - 199.67 92 200 55 4705 659332 29523 64% 102 265773 8476 75%
c O 204.59 92 195 55 4709 666074 35707 65% 102 265773 8476 75%
c - 207.63 92 170 56 4717 683265 29234 61% 92 265773 8476 75%
c s 207.83 92 170 56 4717 683265 26965 61% 92 265773 8476 75%
c w 208.43 92 170 56 4717 683265 26956 61% 92 265773 8476 75%
c B 211.17 92 146 56 4718 703075 41200 55% 81 265773 8476 75%
c - 212.93 92 167 57 4719 707624 30598 55% 83 265773 8476 75%
c - 226.13 92 159 58 4719 732411 31250 60% 87 265773 8476 75%
c W 235.88 92 157 58 4720 741077 39408 61% 87 265773 8476 75%
c 
c  seconds     reductions       redundant   irredundant
c           MB      restarts           trail       variables
c             level      conflicts         glue         remaining
c 
c - 246.06 111 150 59 4720 757625 33400 64% 88 265773 8476 75%
c I 262.27 111 143 59 4720 780080 53519 66% 90 265773 8476 75%
c - 263.18 111 177 60 4720 783266 34558 66% 92 265773 8476 75%
c - 271.33 111 378 61 4723 809336 31348 65% 101 265773 8476 75%
c B 276.80 111 360 61 4729 820081 41293 66% 103 265773 8476 75%
c - 285.18 123 332 62 4735 835831 32266 68% 106 265773 8476 75%
c W 305.13 123 292 62 4749 861082 54856 70% 108 265773 8476 75%
c - 306.21 123 290 63 4749 862755 34819 70% 108 265773 8476 75%
c - 324.70 123 252 64 4752 890107 36397 72% 107 265773 8476 75%
c O 333.31 123 237 64 4760 903083 48553 73% 106 265773 8476 75%
c - 335.49 123 212 65 4766 917885 36449 69% 98 265773 8476 75%
c B 339.49 123 171 65 4780 946085 58236 61% 84 265773 8476 75%
c - 339.71 123 171 66 4780 946090 32771 61% 84 265773 8476 75%
c - 354.66 123 171 67 4783 974723 34914 65% 89 265773 8476 75%
c W 370.85 123 165 67 4783 990086 49054 67% 91 265773 8476 75%
c - 381.06 123 160 68 4783 1003785 39045 68% 93 265773 8476 75%
c ] 391.45 123 153 68 4794 1023013 55867 70% 94 265773 8476 75%
c { 391.45 123 26 68 4794 1023013 55867 21% 22 265773 8476 75%
c - 392.55 123 26 69 5219 1033272 34819 21% 22 265773 8476 75%
c # 392.69 123 26 69 5258 1035090 35663 21% 22 265773 8476 75%
c 
c  seconds   reductions        redundant   irredundant
c          MB     restarts            trail       variables
c           level       conflicts         glue         remaining
c 
c - 395.82 64 25 70 5411 1063188 27615 20% 22 265773 8476 75%
c B 397.35 64 25 70 5497 1081091 38452 20% 22 265773 8476 75%
c - 398.44 74 26 71 6040 1093530 26219 20% 22 265773 8476 75%
c - 400.98 74 25 72 6298 1124300 24511 20% 22 265773 8476 75%
c W 407.23 74 25 72 6407 1128094 26765 20% 22 265773 8476 75%
c - 410.67 74 24 73 6648 1155497 23971 20% 21 265773 8476 75%
c s 410.88 74 24 73 6648 1155497 21908 20% 21 265773 8476 75%
c w 411.59 74 24 73 6648 1155497 21908 20% 21 265773 8476 75%
c F 413.51 74 24 73 6831 1176097 32938 20% 21 265773 8476 75%
c - 414.53 84 24 74 6865 1187123 24957 20% 21 265773 8476 75%
c - 417.87 84 23 75 7028 1219174 26120 20% 21 265773 8476 75%
c B 418.35 84 23 75 7066 1225101 29456 20% 21 265773 8476 75%
c - 420.90 84 32 76 9405 1251652 28463 21% 22 265773 8476 75%
c W 431.20 84 34 76 10225 1275103 43283 21% 22 265773 8476 75%
c - 432.63 86 33 77 10332 1284558 28427 21% 22 265773 8476 75%
c - 436.16 86 30 78 11018 1317891 24028 21% 22 265773 8476 75%
c # 436.89 86 30 78 11136 1326104 28135 21% 22 265773 8476 75%
c - 438.89 86 29 79 11725 1351655 24868 21% 22 265773 8476 75%
c B 441.13 86 27 79 12210 1378105 38774 21% 22 265773 8476 75%
c - 442.92 86 27 80 12409 1385843 25392 21% 22 265773 8476 75%
c 
c  seconds   reductions         redundant   irredundant
c          MB      restarts            trail       variables
c           level        conflicts         glue         remaining
c 
c - 445.34 86 26 81 12725 1420458 25533 20% 22 265773 8476 75%
c W 452.97 86 26 81 12763 1431106 31799 20% 22 265773 8476 75%
c - 455.11 86 25 82 13058 1455500 26158 20% 21 265773 8476 75%
c F 457.35 86 24 82 13493 1485107 41468 20% 21 265773 8476 75%
c - 457.91 86 24 83 13522 1490973 26963 19% 21 265773 8476 75%
c - 462.45 86 24 84 13729 1526872 29781 19% 21 265773 8476 75%
c B 463.98 86 24 84 13850 1540108 37695 19% 21 265773 8476 75%
c - 466.45 86 24 85 16620 1563199 27971 20% 21 265773 8476 75%
c W 478.26 86 24 85 17067 1596109 45881 20% 21 265773 8476 75%
c - 478.84 86 24 86 17089 1599952 27888 20% 21 265773 8476 75%
c - 482.93 86 24 87 17443 1637131 27849 20% 21 265773 8476 75%
c # 484.14 86 23 87 17570 1653111 37121 20% 21 265773 8476 75%
c - 485.98 86 23 88 18336 1674739 29092 20% 21 265773 8476 75%
c s 486.05 86 23 88 18336 1674739 26839 20% 21 265773 8476 75%
c w 486.80 86 23 88 18336 1674739 26836 20% 21 265773 8476 75%
c B 490.01 86 23 88 18749 1711114 47093 20% 21 265773 8476 75%
c - 490.47 86 24 89 18877 1712775 29097 20% 21 265773 8476 75%
c - 494.70 86 27 90 19861 1751236 36902 20% 21 265773 8476 75%
c W 504.92 86 27 90 20327 1770115 48580 20% 21 265773 8476 75%
c - 506.46 88 27 91 21432 1790126 32281 21% 22 265773 8476 75%
c 
c  seconds   reductions         redundant   irredundant
c          MB      restarts            trail       variables
c           level        conflicts         glue         remaining
c 
c - 509.89 88 26 92 22611 1829443 27230 21% 22 265773 8476 75%
c F 509.96 88 26 92 22611 1830118 27588 21% 22 265773 8476 75%
c - 513.91 88 25 93 22851 1869187 32144 21% 22 265773 8476 75%
c B 517.08 88 25 93 23072 1891122 44884 21% 22 265773 8476 75%
c - 518.77 88 25 94 23432 1909358 31742 22% 22 265773 8476 75%
c - 522.50 88 25 95 24005 1949957 30717 21% 22 265773 8476 75%
c W 532.53 88 25 95 24057 1953125 32291 21% 22 265773 8476 75%
c - 536.58 88 24 96 24397 1990984 29870 21% 22 265773 8476 75%
c # 539.12 88 24 96 24747 2016126 42951 21% 22 265773 8476 75%
c - 541.77 88 24 97 24881 2032439 31147 21% 21 265773 8476 75%
c } 542.85 88 24 97 25182 2047014 39207 21% 22 265773 8476 75%
c [ 542.85 88 153 97 25182 2047014 39207 70% 94 265773 8476 75%
c - 545.28 88 124 98 25193 2074320 33937 58% 78 265773 8476 75%
c I 546.01 88 119 98 25198 2080127 37820 56% 75 265773 8476 75%
c - 570.79 128 177 99 25206 2116628 47988 62% 102 265773 8476 75%
c B 586.26 128 170 99 25217 2145131 73493 66% 105 265773 8476 75%
c - 597.93 119 161 100 25226 2159364 49797 68% 103 265773 8476 75%
c ] 599.94 119 160 100 25227 2161683 51872 68% 103 265773 8476 75%
c ? 599.94 119 160 100 25227 2161683 51872 68% 103 265773 8476 75%
c 
c --- [ result ] -------------------------------------------------------------
c 
c UNKNOWN
c 
c --- [ run-time profiling ] -------------------------------------------------
c 
c process time taken by individual solving procedures
c (percentage relative to process time for solving)
c 
c       565.66   94.32% search
c       358.43   59.76% stable
c       130.32   21.73% unstable
c        76.91   12.82% walk
c        34.06    5.68% simplify
c        17.18    2.86% probe
c         3.39    0.57% vivify
c         2.77    0.46% subsume
c         2.65    0.44% ternary
c         2.51    0.42% elim
c         0.21    0.04% parse
c         0.01    0.00% lucky
c   =================================
c       599.73   99.96% solve
c 
c last line shows process time for solving
c (percentage relative to total process time)
c 
c --- [ statistics ] ---------------------------------------------------------
c 
c chronological:            333053        15.41 %  of conflicts
c conflicts:               2161683      3604.46    per second
c decisions:               2706668      4513.18    per second
c eliminated:                 2149        19.10 %  of all variables
c fixed:                       625         5.56 %  of all variables
c learned:                 2138776        98.94 %  per conflict
c learned_lits:          290710520       100.00 %  learned literals
c minimized:                     0         0.00 %  learned literals
c shrunken:              142897316        49.15 %  learned literals
c minishrunken:           13868107         4.77 %  learned literals
c propagations:          504489606         0.84 M  per second
c reduced:                 1424527        65.90 %  per conflict
c rephased:                     65     33256.66    interval
c restarts:                  25227        85.69    interval
c stabilizing:                   6        36.85 %  of conflicts
c subsumed:                 661114        12.98 %  of all clauses
c strengthened:              39232         0.77 %  of all clauses
c vivified:                    132         0.00 %  of all clauses
c walked:                       20    108084.15    interval
c weakened:                 141067         2.57    average size
c 
c seconds are measured in process time for solving
c 
c --- [ resources ] ----------------------------------------------------------
c 
c total process time since initialization:       599.94    seconds
c total real time since initialization:          600.00    seconds
c maximum resident set size of process:          158.40    MB
c 
c --- [ shutting down ] ------------------------------------------------------
c 
c exit 0
